%Mem=16000MB
%NProc=16
%Chk=checkpointdcnv.chk
#n B3LYP/6-31G(d,p) Opt

 dc @ physiological pH

0 2
C         -4.83000       -2.33900       -0.60300
C         -6.05700       -2.00300       -1.16300
C         -6.17400       -0.87300       -1.95000
C         -5.41200        0.22000       -1.55200
C         -4.12300       -0.07200       -1.16000
C         -3.91000       -1.30100       -0.56200
C         -1.78700       -0.52000        0.49700
C         -0.42500       -0.77900        0.63200
C          0.38300        0.29600        0.70200
C         -0.12300        1.46100        1.23000
C         -1.36300        1.79400        0.66100
C         -2.20200        0.77900        0.21100
C         -5.35800       -2.69200        1.65700
O         -4.82700       -3.21600        0.49100
C         -2.60100       -1.62700       -0.01500
O         -2.31800       -2.79900        0.30100
O          0.08100       -2.05500        0.71800
O         -1.85100        3.07900        0.53000
C         -3.30100        1.06000       -0.72200
O         -3.68300        2.25400       -0.87300
C          0.84800        2.58800        1.39200
C          1.51500        2.64600        0.04300
O          0.58300        2.86900       -1.00100
C          2.40500        3.86900       -0.06800
O          2.49400        4.51400       -1.12600
C          2.08200        4.91200        0.98400
O          3.08600        4.96900        1.92200
C          2.15000        1.39400       -0.43600
C          1.97600        0.14900        0.62600
O          1.88100       -0.88800       -0.47400
C          3.32500       -1.23100       -0.80300
C          3.98200       -0.69100        0.61700
C          4.57000       -2.01800        1.31900
N          5.75700       -1.22100        1.94800
C          5.58500       -2.57500        0.06200
O          5.68500       -1.33200       -0.75500
C          4.33800       -3.39500       -0.79600
C          4.46800       -2.58400       -2.21600
O          3.15500       -2.64200       -0.26900
H         -5.31400       -3.42900        2.43200
H         -6.37700       -2.41100        1.49000
H         -4.79400       -1.83200        1.95100
H          1.55800        2.37900        2.16500
H          0.38500        3.51000        1.67700
H          1.16200        4.65400        1.46700
H          1.99100        5.86800        0.51200
H          3.19400        1.57400       -0.58500
H          1.66400        1.11200       -1.34700
H          3.23200       -0.23800        1.23200
H          4.73300        0.05400        0.46000
H          5.43700       -0.73900        2.78800
H          6.10200       -0.53700        1.27400
H          5.28800       -2.97800       -2.77800
H          4.63500       -1.54500       -2.02000
H          3.56300       -2.69900       -2.77700
H         -6.92000       -2.62600       -0.98300
H         -6.81600       -0.84100       -2.81800
H         -5.80300        1.22700       -1.55000
H          2.60500        0.02600        1.50800
H          3.77200       -1.02000       -1.77500
H          3.94600       -2.69200        1.90500
H          6.50100       -1.86000        2.18900
H          6.49600       -3.11600        0.31700
H          4.32000       -4.48500       -0.80200
H          0.23500       -2.39800       -0.16500
H         -0.10700        3.46100       -0.69300
H          2.87100        5.63200        2.58200
H          6.60900       -1.11900       -0.90200
H         -1.28900        3.68600        1.01700
